============================[ Problem Statistics ]=============================|                                                                             ||  Number of variables:          4242                                         ||  Number of clauses:            9986                                         ||  Parse time:                   0.39 s                                       ||                                                                             |============================[ Search Statistics ]==============================| Conflicts |          ORIGINAL         |          LEARNT          | Progress ||           |    Vars  Clauses Literals |    Limit  Clauses Lit/Cl |          |===============================================================================|       100 |    1591     6191   597282 |     2270      100     53 | 62.501 % |===============================================================================restarts              : 3conflicts             : 217            (368 /sec)decisions             : 482            (0.00 % random) (817 /sec)propagations          : 11684          (19803 /sec)conflict literals     : 15719          (95.05 % deleted)CPU time              : 0.59 sSATISFIABLE